





























































































67 31 24 73 45 
1 65 40 60 
51 10 49 
41 59 53 
25 13 48 20 
11 54 42 57 
23 39 63 76 
37 5 66 62 
26 75 68 
44 30 72 46 
52 21 34 32 
2 0 55 29 
47 8 38 
16 22 33 43 
74 7 14 
17 64 58 28 
12 71 27 
3 50 9 15 
61 6 36 
56 4 18 35 
69 70 19 
